V_100_8.txt

VEHICLE     CAPACITY  LOCATIONS  CUSTOMER  OPTIONS  PRIORITIES  NUMTYPS
10		150		97		100		152		3		4

CUSTOMER  DEMAND
0	 12
1	 13
2	 17
3	 20
4	 15
5	 13
6	 12
7	 12
8	 20
9	 14
10	 16
11	 17
12	 16
13	 12
14	 18
15	 11
16	 15
17	 16
18	 11
19	 10
20	 10
21	 15
22	 14
23	 13
24	 14
25	 17
26	 12
27	 15
28	 20
29	 19
30	 16
31	 18
32	 20
33	 10
34	 15
35	 13
36	 19
37	 15
38	 14
39	 20
40	 19
41	 11
42	 14
43	 15
44	 19
45	 20
46	 14
47	 14
48	 17
49	 16
50	 11
51	 10
52	 17
53	 17
54	 20
55	 14
56	 13
57	 17
58	 14
59	 12
60	 14
61	 17
62	 19
63	 10
64	 16
65	 14
66	 13
67	 10
68	 14
69	 19
70	 18
71	 11
72	 19
73	 16
74	 20
75	 20
76	 19
77	 17
78	 14
79	 10
80	 13
81	 16
82	 10
83	 18
84	 15
85	 19
86	 19
87	 20
88	 15
89	 10
90	 20
91	 19
92	 11
93	 15
94	 11
95	 17
96	 13
97	 18
98	 16
99	 20

LOCATION  XCOORD  YCOORD  CAP  READY  DUE  TYP  SERVICETIME
0		36		7		-1		0		720	 0		0
1		1		34		-1		161		221		 2		6
2		29		50		-1		605		665		 2		6
3		9		6		-1		373		433		 2		6
4		20		10		-1		246		306		 2		6
5		12		27		-1		399		459		 2		6
6		18		42		-1		564		624		 2		6
7		7		26		-1		327		387		 2		6
8		24		37		-1		74		134		 2		6
9		7		10		-1		264		324		 2		6
10		17		49		-1		603		663		 2		6
11		27		14		-1		324		384		 2		6
12		49		21		-1		479		539		 2		6
13		28		1		-1		203		263		 2		6
14		27		8		-1		425		485		 2		6
15		48		23		-1		270		330		 2		6
16		34		41		-1		100		160		 2		6
17		30		5		-1		306		366		 2		6
18		13		48		-1		169		229		 2		6
19		9		37		-1		162		222		 2		6
20		12		9		-1		210		270		 2		6
21		18		9		-1		555		615		 2		6
22		1		12		-1		383		443		 2		6
23		21		40		-1		120		180		 2		6
24		46		28		-1		478		538		 2		6
25		13		3		-1		78		138		 2		6
26		12		26		-1		350		410		 2		6
27		46		20		-1		643		703		 2		6
28		7		9		-1		456		516		 2		6
29		28		19		-1		307		367		 2		6
30		24		37		-1		564		624		 2		6
31		16		39		-1		574		634		 2		6
32		19		50		-1		305		365		 2		6
33		19		46		-1		265		325		 2		6
34		8		9		-1		216		276		 2		6
35		11		10		-1		108		168		 2		6
36		16		5		-1		209		269		 2		6
37		34		41		-1		212		272		 2		6
38		38		25		-1		235		295		 2		6
39		49		30		-1		220		280		 2		6
40		24		2		-1		531		591		 2		6
41		10		26		-1		288		348		 2		6
42		50		38		-1		190		250		 2		6
43		26		4		-1		608		668		 2		6
44		39		7		-1		167		227		 2		6
45		42		6		-1		99		159		 2		6
46		12		32		-1		558		618		 2		6
47		35		49		-1		71		131		 2		6
48		49		22		-1		626		686		 2		6
49		33		41		-1		260		320		 2		6
50		44		31		-1		492		552		 2		6
51		47		16		-1		650		710		 2		6
52		30		1		-1		629		689		 2		6
53		23		6		-1		80		140		 2		6
54		46		34		-1		186		246		 2		6
55		30		35		-1		494		554		 2		6
56		17		16		-1		379		439		 2		6
57		34		9		-1		167		227		 2		6
58		22		43		-1		211		271		 2		6
59		43		45		-1		357		417		 2		6
60		41		49		-1		530		590		 2		6
61		40		20		-1		652		712		 2		6
62		1		6		-1		591		651		 2		6
63		32		7		-1		259		319		 2		6
64		40		46		-1		82		142		 2		6
65		9		27		-1		504		564		 2		6
66		32		6		-1		125		185		 2		6
67		5		39		-1		212		272		 2		6
68		28		46		-1		550		610		 2		6
69		47		28		-1		230		290		 2		6
70		49		25		-1		111		171		 2		6
71		16		16		-1		500		560		 2		6
72		15		50		-1		398		458		 2		6
73		4		3		-1		627		687		 2		6
74		5		11		-1		130		190		 2		6
75		24		45		-1		583		643		 2		6
76		34		26		-1		47		107		 2		6
77		19		17		4		274		514		 1		4
78		17		39		4		229		469		 1		4
79		31		33		4		12		252		 1		4
80		38		28		3		92		332		 1		4
81		29		35		3		295		535		 1		4
82		31		8		3		59		299		 1		4
83		37		36		5		95		335		 1		4
84		14		7		4		167		407		 1		4
85		41		30		5		453		693		 1		4
86		18		35		4		60		300		 1		4
87		33		14		5		466		706		 1		4
88		21		40		3		468		708		 1		4
89		19		33		3		337		577		 1		4
90		22		23		5		326		566		 1		4
91		22		43		4		292		532		 1		4
92		26		35		3		169		409		 1		4
93		45		37		5		265		505		 1		4
94		12		18		4		141		381		 1		4
95		21		42		4		273		513		 1		4
96		32		32		5		197		437		 1		4
OPTION  LOCATION  CUSTOMER  PRIO  SERVICETIME   COST
0		84		0		0		2		0
1		82		1		0		2		0
2		79		2		0		2		0
3		94		3		0		2		0
4		87		4		0		2		0
5		89		5		0		2		0
6		79		6		0		2		0
7		91		7		0		2		0
8		89		8		0		2		0
9		80		9		0		2		0
10		85		10		0		2		0
11		83		11		0		2		0
12		88		12		0		2		0
13		92		13		0		2		0
14		80		14		0		2		0
15		81		15		0		2		0
16		93		16		0		2		0
17		77		17		0		2		0
18		81		18		0		2		0
19		94		19		0		2		0
20		80		20		0		2		0
21		82		21		0		2		0
22		91		22		0		2		0
23		86		23		0		2		0
24		1		24		0		5		0
25		2		25		0		5		0
26		3		26		0		5		0
27		4		27		0		5		0
28		5		28		0		5		0
29		6		29		0		5		0
30		7		30		0		5		0
31		8		31		0		5		0
32		9		32		0		5		0
33		10		33		0		5		0
34		11		34		0		5		0
35		12		35		0		5		0
36		13		36		0		5		0
37		14		37		0		5		0
38		15		38		0		5		0
39		16		39		0		5		0
40		17		40		0		5		0
41		18		41		0		5		0
42		19		42		0		5		0
43		20		43		0		5		0
44		21		44		0		5		0
45		22		45		0		5		0
46		23		46		0		5		0
47		24		47		0		5		0
48		25		48		0		5		0
49		85		48		1		2		0
50		26		49		1		5		0
51		89		49		0		2		0
52		27		50		1		5		0
53		86		50		0		2		0
54		28		51		1		5		0
55		88		51		0		2		0
56		29		52		1		5		0
57		82		52		0		2		0
58		30		53		1		5		0
59		96		53		0		2		0
60		31		54		1		5		0
61		86		54		0		2		0
62		32		55		0		5		0
63		88		55		1		2		0
64		33		56		1		5		0
65		78		56		0		2		0
66		34		57		1		5		0
67		87		57		0		2		0
68		35		58		1		5		0
69		95		58		0		2		0
70		36		59		0		5		0
71		77		59		1		2		0
72		37		60		0		5		0
73		79		60		1		2		0
74		38		61		0		5		0
75		96		61		1		2		0
76		39		62		1		5		0
77		80		62		0		2		0
78		40		63		1		5		0
79		87		63		0		2		0
80		41		64		1		5		0
81		77		64		0		2		0
82		42		65		0		5		0
83		96		65		1		2		0
84		43		66		1		5		0
85		89		66		0		2		0
86		44		67		1		5		0
87		85		67		0		2		0
88		45		68		1		5		0
89		87		68		0		2		0
90		46		69		1		5		0
91		90		69		0		2		0
92		47		70		1		5		0
93		96		70		0		2		0
94		48		71		1		5		0
95		83		71		0		2		0
96		49		72		0		5		0
97		92		72		1		2		0
98		50		73		0		5		0
99		93		73		1		2		0
100		51		74		0		5		0
101		80		74		1		2		0
102		52		75		1		5		0
103		84		75		0		2		0
104		53		76		1		5		0
105		87		76		0		2		0
106		54		77		1		5		0
107		96		77		0		2		0
108		55		78		1		5		0
109		91		78		0		2		0
110		56		79		1		5		0
111		81		79		0		2		0
112		57		80		1		5		0
113		91		80		0		2		0
114		58		81		1		5		0
115		95		81		0		2		0
116		59		82		0		5		0
117		77		82		1		2		0
118		60		83		1		5		0
119		91		83		0		2		0
120		61		84		1		5		0
121		82		84		0		2		0
122		62		85		1		5		0
123		77		85		0		2		0
124		63		86		1		5		0
125		84		86		0		2		0
126		64		87		1		5		0
127		82		87		0		2		0
128		65		88		1		5		0
129		86		88		0		2		0
130		66		89		0		5		0
131		81		89		1		2		0
132		67		90		0		5		0
133		95		90		1		2		0
134		68		91		1		5		0
135		86		91		0		2		0
136		69		92		1		5		0
137		80		92		0		2		0
138		70		93		1		5		0
139		93		93		0		2		0
140		71		94		0		5		0
141		84		94		1		2		0
142		72		95		0		5		0
143		88		95		1		2		0
144		73		96		0		5		0
145		87		96		1		2		0
146		74		97		1		5		0
147		94		97		0		2		0
148		75		98		1		5		0
149		93		98		0		2		0
150		76		99		1		5		0
151		78		99		0		2		0
